db/data/2574955792610816344292028874507621473.z3.out
sat
-------------------
944.806318653
